# Optional custom keyboard mapping for Mac Laptops.
# Modified from the original keymap.cfg by MarkTheStrange
# https://files.mega65.org?id=2315f103-9ea1-4b7a-ac90-49463735c589
# Place in XEMU Xmega65 System Folder

RUNSTOP Escape

ESC     F1

F1      F2
F3      F3
F5      F4
F7      F5

F9      F6
F11     F7
F13     F8
HELP    F12

LARROW `
1 1
2 2
3 3
4 4
5 5
6 6
7 7
8 8
9 9
0 0
PLUS -
MINUS =
POUND   F9
CLR     F10
DEL Backspace

TAB Tab
Q Q
W W
E E
R R
T T
Y Y
U U
I I
O O
P P
AT [
ASTERISK ]
UARROW  \
RESTORE F11

CTRL Left Ctrl
A A
S S
D D
F F
G G
H H
J J
K K
L L
COLON ;
SEMICOLON '
EQUALS Delete
RETURN Return

COMMODORE Left Option
LSHIFT Left Shift
Z Z
X X
C C
V V
B B
N N
M M
COMMA ,
PERIOD .
SLASH /
RSHIFT Right Shift
*UP  Up

SPACE Space
*LEFT  Left
DOWN  Down
RIGHT Right
